
Gurobi 11.0.0 (linux64) logging started Tue Sep 17 03:35:48 2024

Set parameter LogFile to value "gurobi.log"
Set parameter InfUnbdInfo to value 1
Gurobi Optimizer version 11.0.0 build v11.0.0rc2 (linux64 - "Ubuntu 22.04.4 LTS")

CPU model: AMD EPYC 7V13 64-Core Processor, instruction set [SSE2|AVX|AVX2]
Thread count: 128 physical cores, 128 logical processors, using up to 32 threads

Optimize a model with 29 rows, 598 columns and 95 nonzeros
Model fingerprint: 0x0986140f
Model has 625 quadratic constraints
Model has 1 general constraint
Variable types: 202 continuous, 396 integer (0 binary)
Coefficient statistics:
  Matrix range     [1e+00, 6e+04]
  QMatrix range    [1e+00, 6e+04]
  QLMatrix range   [1e+00, 6e+04]
  Objective range  [1e+00, 1e+00]
  Bounds range     [1e+00, 1e+11]
  RHS range        [1e+00, 1e+00]
  QRHS range       [4e+01, 2e+06]
Warning: Model contains large bounds
         Consider reformulating model or setting NumericFocus parameter
         to avoid numerical issues.
Using branch priorities (all 0).
Presolve added 19 rows and 0 columns
Presolve removed 0 rows and 61 columns
Presolve time: 0.01s
Presolved: 2181 rows, 816 columns, 5611 nonzeros
Presolved model has 16 SOS constraint(s)
Presolved model has 408 bilinear constraint(s)
Warning: Model contains variables with very large bounds participating
         in product terms.
         Presolve was not able to compute smaller bounds for these variables.
         Consider bounding these variables or reformulating the model.


Solving non-convex MIQCP

Variable types: 299 continuous, 517 integer (199 binary)

Root relaxation: objective 3.980000e+02, 156 iterations, 0.00 seconds (0.00 work units)

    Nodes    |    Current Node    |     Objective Bounds      |     Work
 Expl Unexpl |  Obj  Depth IntInf | Incumbent    BestBd   Gap | It/Node Time

     0     0  398.00000    0   98          -  398.00000      -     -    0s
H    0     0                    1.949623e+08  398.00000   100%     -    0s
H    0     0                    4.339556e+07  398.00000   100%     -    0s
H    0     0                    2.189156e+07  398.00000   100%     -    0s
     0     0 4365.00000    0  135 2.1892e+07 4365.00000   100%     -    0s
     0     0 17698.3333    0  132 2.1892e+07 17698.3333   100%     -    0s
     0     0 24201.0944    0   93 2.1892e+07 24201.0944   100%     -    0s
     0     0 24201.0944    0   90 2.1892e+07 24201.0944   100%     -    0s
H    0     0                    294414.00000 24201.5997  91.8%     -    0s
     0     0 24201.5997    0   88 294414.000 24201.5997  91.8%     -    0s
     0     0 24202.1391    0  106 294414.000 24202.1391  91.8%     -    0s
H    0     0                    226138.00000 24202.4943  89.3%     -    0s
     0     0 24202.4943    0   86 226138.000 24202.4943  89.3%     -    0s
     0     0 24202.6173    0   90 226138.000 24202.6173  89.3%     -    0s
     0     0 24203.0948    0   88 226138.000 24203.0948  89.3%     -    0s
H    0     0                    217974.00000 24203.0948  88.9%     -    0s
H    0     0                    202686.00000 24203.0948  88.1%     -    0s
     0     0 24203.0948    0   86 202686.000 24203.0948  88.1%     -    0s
     0     0 24203.8131    0   78 202686.000 24203.8131  88.1%     -    0s
H    0     0                    195562.00000 24203.8131  87.6%     -    0s
     0     2 24295.5441    0   78 195562.000 24295.5441  87.6%     -    0s
H   36    28                    191536.00000 24501.1249  87.2%  24.8    1s
H   38    28                    30110.000000 24501.1249  18.6%  23.7    1s
H   76    27                    27562.000000 24501.6089  11.1%  21.0    1s

Cutting planes:
  Learned: 3
  Gomory: 5
  Lift-and-project: 3
  Implied bound: 17
  MIR: 48
  StrongCG: 4
  Flow cover: 3
  Zero half: 1
  RLT: 63
  Relax-and-lift: 3
  BQP: 4

Explored 180 nodes (3354 simplex iterations) in 1.37 seconds (0.23 work units)
Thread count was 32 (of 128 available processors)

Solution count 10: 27562 30110 191536 ... 4.33956e+07

Optimal solution found (tolerance 1.00e-10)
Best objective 2.756200000000e+04, best bound 2.756200000000e+04, gap 0.0000%
